
  22    4
  10   10   10   10

   0   0   0   0   0   5 2 3 4 5 6 
   8  10  10  10  10   4 17 9 8 7 
   2  10  10  10  10   5 20 17 10 9 8 
  10  10  10  10  10   5 17 13 11 10 9 
   4  10  10  10  10   4 20 13 12 9 
   6  10  10  10  10   4 20 17 13 10 
   3  10  10  10  10   4 20 16 14 13 
   4  10  10  10  10   3 16 13 12 
   2  10  10  10  10   3 21 16 15 
   9  10  10  10  10   2 16 12 
   8  10  10  10  10   2 16 12 
   3  10  10  10  10   1 15 
   9  10  10  10  10   1 15 
   2  10  10  10  10   1 15 
   3  10  10  10  10   2 19 18 
   3  10  10  10  10   1 18 
   4  10  10  10  10   1 18 
   3  10  10  10  10   1 22
   8  10  10  10  10   1 22
   6  10  10  10  10   1 22
   5  10  10  10  10   1 22
   0   0   0   0   0   0 
